asdfasfasf
1.0
  3.8003475247  0.0000000000  0.0000000000
  -1.9001737623  3.2911974996  0.0000000000
  0.0000000000  0.0000000000  5.3419052852
H 
8 
 Carthesi an
  0.0000000000  0.0000000000  0.0000000000  H
  0.0000000000  0.0000000000  2.6709526426  H
  -0.9500868812  1.6455987498  0.0000000000  H
  -0.9500868812  1.6455987498  2.6709526426  H
  1.9001737623  0.0000000000  0.0000000000  H
  1.9001737623  0.0000000000  2.6709526426  H
  0.9500868812  1.6455987498  0.0000000000  H
  0.9500868812  1.6455987498  2.6709526426  H

